p cnf 27 63
a 26 7 0
e 1 2 3 4 5 6 8 9 10 11 12 13 14 15 16 17 18 19 20 21 22 23 24 25 27 0
3 -1 0
3 -2 0
1 2 -3 0
-1 -2 -4 0
1 2 -4 0
-1 2 4 0
1 -2 4 0
-5 3 0
-5 -4 0
-3 4 5 0
-6 7 -8 0
6 -7 -8 0
-6 -7 8 0
6 7 8 0
-8 9 -10 0
8 -9 -10 0
-8 -9 10 0
8 9 10 0
-12 -6 0
-12 -11 0
6 11 12 0
12 13 -14 0
-12 -13 -14 0
12 -13 14 0
-12 13 14 0
-15 10 0
-15 -14 0
-10 14 15 0
-16 -5 0
-16 -15 0
5 15 16 0
17 18 0
-17 18 0
19 18 0
19 8 0
-18 -8 -19 0
21 -20 0
21 17 0
20 -17 -21 0
-21 -2 -22 0
21 2 -22 0
-21 2 22 0
21 -2 22 0
23 19 0
23 -22 0
-19 22 -23 0
24 16 0
24 -23 0
-16 23 -24 0
-18 -25 -26 0
18 25 -26 0
-18 25 26 0
18 -25 26 0
27 24 0
27 -26 0
-24 26 -27 0
16 -10 -2 14 15 19 21 0
15 -22 -17 0
-13 -21 14 22 18 -1 2 0
8 25 10 0
13 -12 1 -7 0
-25 21 3 11 14 -10 0
27 0
